(set-logic HORN)
(declare-datatypes ((Bool_0 0)) (((false_0 ) (true_0 ))))
(declare-fun diseqBool_0 (Bool_0 Bool_0) Bool)
(declare-fun and_0 (Bool_0 Bool_0 Bool_0) Bool)
(declare-datatypes ((Nat_0 0)) (((zero_0 ) (succ_0 (p_0 Nat_0)))))
(declare-datatypes ((list_0 0)) (((nil_0 ) (cons_0 (head_0 Nat_0) (tail_0 list_0)))))
(declare-datatypes ((pair_0 0)) (((pair_1 (projpair_0 Bool_0) (projpair_1 list_0)))))
(declare-fun leq_0 (Bool_0 Nat_0 Nat_0) Bool)
(declare-fun ordered_0 (Bool_0 list_0) Bool)
(declare-fun bubble_0 (pair_0 list_0) Bool)
(declare-fun bubsort_0 (list_0 list_0) Bool)
(assert (diseqBool_0 false_0 true_0))
(assert (diseqBool_0 true_0 false_0))
(assert (and_0 false_0 false_0 false_0))
(assert (and_0 false_0 true_0 false_0))
(assert (and_0 false_0 false_0 true_0))
(assert (and_0 true_0 true_0 true_0))
(assert (forall ((x_5 Bool_0) (x_1 Nat_0) (z_0 Nat_0))
	(=> (leq_0 x_5 z_0 x_1) (leq_0 x_5 (succ_0 z_0) (succ_0 x_1)))))
(assert (forall ((z_0 Nat_0))
	(leq_0 false_0 (succ_0 z_0) zero_0)))
(assert (forall ((y_0 Nat_0))
	(leq_0 true_0 zero_0 y_0)))
(assert (forall ((x_29 Bool_0) (x_10 Bool_0) (x_11 Bool_0) (y_2 Nat_0) (xs_0 list_0) (y_1 Nat_0))
	(=> (and (leq_0 x_10 y_1 y_2) (ordered_0 x_11 (cons_0 y_2 xs_0)) (and_0 x_29 x_10 x_11)) (ordered_0 x_29 (cons_0 y_1 (cons_0 y_2 xs_0))))))
(assert (forall ((y_1 Nat_0))
	(ordered_0 true_0 (cons_0 y_1 nil_0))))
(assert (ordered_0 true_0 nil_0))
(assert (forall ((b_0 Bool_0) (ys_0 list_0) (y_4 Nat_0) (xs_1 list_0) (y_3 Nat_0))
	(=> (and (bubble_0 (pair_1 b_0 ys_0) (cons_0 y_4 xs_1)) (leq_0 true_0 y_3 y_4)) (bubble_0 (pair_1 b_0 (cons_0 y_3 ys_0)) (cons_0 y_3 (cons_0 y_4 xs_1))))))
(assert (forall ((x_17 Bool_0) (b_1 Bool_0) (ys_1 list_0) (y_4 Nat_0) (xs_1 list_0) (y_3 Nat_0))
	(=> (and (diseqBool_0 x_17 true_0) (bubble_0 (pair_1 b_1 ys_1) (cons_0 y_3 xs_1)) (leq_0 x_17 y_3 y_4)) (bubble_0 (pair_1 true_0 (cons_0 y_4 ys_1)) (cons_0 y_3 (cons_0 y_4 xs_1))))))
(assert (forall ((y_3 Nat_0))
	(bubble_0 (pair_1 false_0 (cons_0 y_3 nil_0)) (cons_0 y_3 nil_0))))
(assert (bubble_0 (pair_1 false_0 nil_0) nil_0))
(assert (forall ((x_23 list_0) (ys_2 list_0) (x_4 list_0))
	(=> (and (bubsort_0 x_23 ys_2) (bubble_0 (pair_1 true_0 ys_2) x_4)) (bubsort_0 x_23 x_4))))
(assert (forall ((x_26 list_0) (c_0 Bool_0) (ys_2 list_0))
	(=> (and (diseqBool_0 c_0 true_0) (bubble_0 (pair_1 c_0 ys_2) x_26)) (bubsort_0 x_26 x_26))))
(assert (forall ((x_27 list_0) (x_28 Bool_0) (xs_2 list_0))
	(=> (and (diseqBool_0 x_28 true_0) (bubsort_0 x_27 xs_2) (ordered_0 x_28 x_27)) false)))
(check-sat)
(get-model)
